c description: Subset cardinality formula for fast_gnp_random_graph(6,8,0.8)
c generator: CNFgen (0.9.0)
c copyright: (C) 2012-2020 Massimo Lauria <massimo.lauria@uniroma1.it>
c url: https://massimolauria.net/cnfgen
c
p cnf 38 233
1 2 3 4 0
1 2 3 5 0
1 2 3 6 0
1 2 3 7 0
1 2 4 5 0
1 2 4 6 0
1 2 4 7 0
1 2 5 6 0
1 2 5 7 0
1 2 6 7 0
1 3 4 5 0
1 3 4 6 0
1 3 4 7 0
1 3 5 6 0
1 3 5 7 0
1 3 6 7 0
1 4 5 6 0
1 4 5 7 0
1 4 6 7 0
1 5 6 7 0
2 3 4 5 0
2 3 4 6 0
2 3 4 7 0
2 3 5 6 0
2 3 5 7 0
2 3 6 7 0
2 4 5 6 0
2 4 5 7 0
2 4 6 7 0
2 5 6 7 0
3 4 5 6 0
3 4 5 7 0
3 4 6 7 0
3 5 6 7 0
4 5 6 7 0
8 9 10 0
8 9 11 0
8 10 11 0
9 10 11 0
12 13 14 15 0
12 13 14 16 0
12 13 14 17 0
12 13 14 18 0
12 13 15 16 0
12 13 15 17 0
12 13 15 18 0
12 13 16 17 0
12 13 16 18 0
12 13 17 18 0
12 14 15 16 0
12 14 15 17 0
12 14 15 18 0
12 14 16 17 0
12 14 16 18 0
12 14 17 18 0
12 15 16 17 0
12 15 16 18 0
12 15 17 18 0
12 16 17 18 0
13 14 15 16 0
13 14 15 17 0
13 14 15 18 0
13 14 16 17 0
13 14 16 18 0
13 14 17 18 0
13 15 16 17 0
13 15 16 18 0
13 15 17 18 0
13 16 17 18 0
14 15 16 17 0
14 15 16 18 0
14 15 17 18 0
14 16 17 18 0
15 16 17 18 0
19 20 21 22 0
19 20 21 23 0
19 20 21 24 0
19 20 22 23 0
19 20 22 24 0
19 20 23 24 0
19 21 22 23 0
19 21 22 24 0
19 21 23 24 0
19 22 23 24 0
20 21 22 23 0
20 21 22 24 0
20 21 23 24 0
20 22 23 24 0
21 22 23 24 0
25 26 27 28 0
25 26 27 29 0
25 26 27 30 0
25 26 27 31 0
25 26 28 29 0
25 26 28 30 0
25 26 28 31 0
25 26 29 30 0
25 26 29 31 0
25 26 30 31 0
25 27 28 29 0
25 27 28 30 0
25 27 28 31 0
25 27 29 30 0
25 27 29 31 0
25 27 30 31 0
25 28 29 30 0
25 28 29 31 0
25 28 30 31 0
25 29 30 31 0
26 27 28 29 0
26 27 28 30 0
26 27 28 31 0
26 27 29 30 0
26 27 29 31 0
26 27 30 31 0
26 28 29 30 0
26 28 29 31 0
26 28 30 31 0
26 29 30 31 0
27 28 29 30 0
27 28 29 31 0
27 28 30 31 0
27 29 30 31 0
28 29 30 31 0
32 33 34 35 0
32 33 34 36 0
32 33 34 37 0
32 33 34 38 0
32 33 35 36 0
32 33 35 37 0
32 33 35 38 0
32 33 36 37 0
32 33 36 38 0
32 33 37 38 0
32 34 35 36 0
32 34 35 37 0
32 34 35 38 0
32 34 36 37 0
32 34 36 38 0
32 34 37 38 0
32 35 36 37 0
32 35 36 38 0
32 35 37 38 0
32 36 37 38 0
33 34 35 36 0
33 34 35 37 0
33 34 35 38 0
33 34 36 37 0
33 34 36 38 0
33 34 37 38 0
33 35 36 37 0
33 35 36 38 0
33 35 37 38 0
33 36 37 38 0
34 35 36 37 0
34 35 36 38 0
34 35 37 38 0
34 36 37 38 0
35 36 37 38 0
-1 -8 -12 -19 0
-1 -8 -12 -25 0
-1 -8 -12 -32 0
-1 -8 -19 -25 0
-1 -8 -19 -32 0
-1 -8 -25 -32 0
-1 -12 -19 -25 0
-1 -12 -19 -32 0
-1 -12 -25 -32 0
-1 -19 -25 -32 0
-8 -12 -19 -25 0
-8 -12 -19 -32 0
-8 -12 -25 -32 0
-8 -19 -25 -32 0
-12 -19 -25 -32 0
-26 -33 0
-2 -9 -13 -20 0
-2 -9 -13 -27 0
-2 -9 -13 -34 0
-2 -9 -20 -27 0
-2 -9 -20 -34 0
-2 -9 -27 -34 0
-2 -13 -20 -27 0
-2 -13 -20 -34 0
-2 -13 -27 -34 0
-2 -20 -27 -34 0
-9 -13 -20 -27 0
-9 -13 -20 -34 0
-9 -13 -27 -34 0
-9 -20 -27 -34 0
-13 -20 -27 -34 0
-3 -10 -14 0
-3 -10 -28 0
-3 -10 -35 0
-3 -14 -28 0
-3 -14 -35 0
-3 -28 -35 0
-10 -14 -28 0
-10 -14 -35 0
-10 -28 -35 0
-14 -28 -35 0
-4 -11 -15 -21 0
-4 -11 -15 -29 0
-4 -11 -15 -36 0
-4 -11 -21 -29 0
-4 -11 -21 -36 0
-4 -11 -29 -36 0
-4 -15 -21 -29 0
-4 -15 -21 -36 0
-4 -15 -29 -36 0
-4 -21 -29 -36 0
-11 -15 -21 -29 0
-11 -15 -21 -36 0
-11 -15 -29 -36 0
-11 -21 -29 -36 0
-15 -21 -29 -36 0
-5 -16 -22 0
-5 -16 -30 0
-5 -16 -37 0
-5 -22 -30 0
-5 -22 -37 0
-5 -30 -37 0
-16 -22 -30 0
-16 -22 -37 0
-16 -30 -37 0
-22 -30 -37 0
-6 -17 -23 0
-6 -17 -31 0
-6 -23 -31 0
-17 -23 -31 0
-7 -18 -24 0
-7 -18 -38 0
-7 -24 -38 0
-18 -24 -38 0